p cnf 324 1
324 0
w 1 0.924819
w 2 1 0.540231
w 2 -1 0.980732
w 3 2 0
w 3 -2 1
w 4 3 1
w 4 -3 0
w 5 4 1
w 5 -4 0
w 6 5 0
w 6 -5 1
w 7 6 0
w 7 -6 1
w 8 7 0
w 8 -7 1
w 9 8 1
w 9 -8 0
w 10 9 0.501159
w 10 -9 0.523273
w 11 10 0.584316
w 11 -10 0.660785
w 12 11 0
w 12 -11 1
w 13 12 1
w 13 -12 0
w 14 13 0
w 14 -13 1
w 15 14 0.473121
w 15 -14 0.254437
w 16 15 1
w 16 -15 0
w 17 16 1
w 17 -16 0
w 18 17 1
w 18 -17 0
w 19 1 0
w 19 -1 1
w 20 19 2 1
w 20 19 -2 0
w 20 -19 2 0
w 20 -19 -2 0
w 21 20 3 1
w 21 20 -3 1
w 21 -20 3 0
w 21 -20 -3 0
w 22 21 4 0
w 22 21 -4 1
w 22 -21 4 1
w 22 -21 -4 0
w 23 22 5 0.378664
w 23 22 -5 0.53699
w 23 -22 5 0.427618
w 23 -22 -5 0.261199
w 24 23 6 0
w 24 23 -6 0
w 24 -23 6 1
w 24 -23 -6 0
w 25 24 7 0
w 25 24 -7 1
w 25 -24 7 0
w 25 -24 -7 0
w 26 25 8 0
w 26 25 -8 0
w 26 -25 8 0
w 26 -25 -8 1
w 27 26 9 1
w 27 26 -9 0
w 27 -26 9 1
w 27 -26 -9 1
w 28 27 10 0.986017
w 28 27 -10 0.973701
w 28 -27 10 0.0738673
w 28 -27 -10 0.974706
w 29 28 11 0.452531
w 29 28 -11 0.511696
w 29 -28 11 0.341232
w 29 -28 -11 0.713731
w 30 29 12 0
w 30 29 -12 1
w 30 -29 12 1
w 30 -29 -12 0
w 31 30 13 0
w 31 30 -13 1
w 31 -30 13 1
w 31 -30 -13 0
w 32 31 14 1
w 32 31 -14 1
w 32 -31 14 0
w 32 -31 -14 1
w 33 32 15 0.785551
w 33 32 -15 0.46949
w 33 -32 15 0.935068
w 33 -32 -15 0.539653
w 34 33 16 0.80497
w 34 33 -16 0.52567
w 34 -33 16 0.883947
w 34 -33 -16 0.878837
w 35 34 17 0
w 35 34 -17 1
w 35 -34 17 1
w 35 -34 -17 1
w 36 35 18 1
w 36 35 -18 1
w 36 -35 18 0
w 36 -35 -18 1
w 37 19 0
w 37 -19 1
w 38 37 20 0.534934
w 38 37 -20 0.450331
w 38 -37 20 0.662306
w 38 -37 -20 0.216115
w 39 38 21 0.341355
w 39 38 -21 0.117008
w 39 -38 21 0.763207
w 39 -38 -21 0.126906
w 40 39 22 0
w 40 39 -22 1
w 40 -39 22 0
w 40 -39 -22 0
w 41 40 23 1
w 41 40 -23 0
w 41 -40 23 1
w 41 -40 -23 0
w 42 41 24 0
w 42 41 -24 1
w 42 -41 24 1
w 42 -41 -24 1
w 43 42 25 0
w 43 42 -25 0
w 43 -42 25 1
w 43 -42 -25 0
w 44 43 26 0.906806
w 44 43 -26 0.277352
w 44 -43 26 0.356163
w 44 -43 -26 0.569112
w 45 44 27 1
w 45 44 -27 0
w 45 -44 27 0
w 45 -44 -27 1
w 46 45 28 1
w 46 45 -28 0
w 46 -45 28 0
w 46 -45 -28 0
w 47 46 29 0
w 47 46 -29 1
w 47 -46 29 0
w 47 -46 -29 0
w 48 47 30 1
w 48 47 -30 0
w 48 -47 30 0
w 48 -47 -30 1
w 49 48 31 0
w 49 48 -31 1
w 49 -48 31 0
w 49 -48 -31 1
w 50 49 32 0
w 50 49 -32 0
w 50 -49 32 1
w 50 -49 -32 0
w 51 50 33 1
w 51 50 -33 1
w 51 -50 33 0
w 51 -50 -33 1
w 52 51 34 0.436068
w 52 51 -34 0.682461
w 52 -51 34 0.801752
w 52 -51 -34 0.14
w 53 52 35 1
w 53 52 -35 1
w 53 -52 35 0
w 53 -52 -35 1
w 54 53 36 1
w 54 53 -36 0
w 54 -53 36 0
w 54 -53 -36 1
w 55 37 0
w 55 -37 1
w 56 55 38 1
w 56 55 -38 0
w 56 -55 38 0
w 56 -55 -38 1
w 57 56 39 0.253187
w 57 56 -39 0.206341
w 57 -56 39 0.488843
w 57 -56 -39 0.741414
w 58 57 40 0
w 58 57 -40 1
w 58 -57 40 1
w 58 -57 -40 1
w 59 58 41 0
w 59 58 -41 0
w 59 -58 41 1
w 59 -58 -41 1
w 60 59 42 1
w 60 59 -42 1
w 60 -59 42 0
w 60 -59 -42 0
w 61 60 43 0.286095
w 61 60 -43 0.29564
w 61 -60 43 0.0522409
w 61 -60 -43 0.644926
w 62 61 44 0
w 62 61 -44 1
w 62 -61 44 0
w 62 -61 -44 0
w 63 62 45 1
w 63 62 -45 0
w 63 -62 45 0
w 63 -62 -45 1
w 64 63 46 0
w 64 63 -46 1
w 64 -63 46 1
w 64 -63 -46 1
w 65 64 47 1
w 65 64 -47 1
w 65 -64 47 0
w 65 -64 -47 1
w 66 65 48 0.150317
w 66 65 -48 0.887472
w 66 -65 48 0.995708
w 66 -65 -48 0.23801
w 67 66 49 1
w 67 66 -49 0
w 67 -66 49 1
w 67 -66 -49 0
w 68 67 50 1
w 68 67 -50 0
w 68 -67 50 1
w 68 -67 -50 0
w 69 68 51 0.724889
w 69 68 -51 0.216246
w 69 -68 51 0.870591
w 69 -68 -51 0.121557
w 70 69 52 1
w 70 69 -52 1
w 70 -69 52 0
w 70 -69 -52 0
w 71 70 53 0
w 71 70 -53 0
w 71 -70 53 1
w 71 -70 -53 1
w 72 71 54 0.858256
w 72 71 -54 0.108626
w 72 -71 54 0.857618
w 72 -71 -54 0.853964
w 73 55 1
w 73 -55 0
w 74 73 56 0
w 74 73 -56 0
w 74 -73 56 1
w 74 -73 -56 0
w 75 74 57 0.65748
w 75 74 -57 0.574335
w 75 -74 57 0.782133
w 75 -74 -57 0.566809
w 76 75 58 1
w 76 75 -58 0
w 76 -75 58 1
w 76 -75 -58 1
w 77 76 59 1
w 77 76 -59 1
w 77 -76 59 1
w 77 -76 -59 0
w 78 77 60 1
w 78 77 -60 1
w 78 -77 60 0
w 78 -77 -60 0
w 79 78 61 0
w 79 78 -61 1
w 79 -78 61 1
w 79 -78 -61 1
w 80 79 62 0.894583
w 80 79 -62 0.400834
w 80 -79 62 0.973042
w 80 -79 -62 0.883713
w 81 80 63 0
w 81 80 -63 1
w 81 -80 63 1
w 81 -80 -63 0
w 82 81 64 0
w 82 81 -64 0
w 82 -81 64 0
w 82 -81 -64 1
w 83 82 65 1
w 83 82 -65 1
w 83 -82 65 0
w 83 -82 -65 1
w 84 83 66 0.555962
w 84 83 -66 0.596948
w 84 -83 66 0.993507
w 84 -83 -66 0.0176316
w 85 84 67 0
w 85 84 -67 1
w 85 -84 67 1
w 85 -84 -67 1
w 86 85 68 1
w 86 85 -68 1
w 86 -85 68 1
w 86 -85 -68 0
w 87 86 69 1
w 87 86 -69 1
w 87 -86 69 0
w 87 -86 -69 0
w 88 87 70 0
w 88 87 -70 0
w 88 -87 70 1
w 88 -87 -70 0
w 89 88 71 0
w 89 88 -71 0
w 89 -88 71 1
w 89 -88 -71 1
w 90 89 72 1
w 90 89 -72 0
w 90 -89 72 0
w 90 -89 -72 0
w 91 73 0.434345
w 91 -73 0.835897
w 92 91 74 1
w 92 91 -74 0
w 92 -91 74 1
w 92 -91 -74 0
w 93 92 75 0
w 93 92 -75 1
w 93 -92 75 0
w 93 -92 -75 1
w 94 93 76 0
w 94 93 -76 1
w 94 -93 76 1
w 94 -93 -76 0
w 95 94 77 1
w 95 94 -77 1
w 95 -94 77 0
w 95 -94 -77 1
w 96 95 78 1
w 96 95 -78 0
w 96 -95 78 0
w 96 -95 -78 0
w 97 96 79 0
w 97 96 -79 1
w 97 -96 79 1
w 97 -96 -79 0
w 98 97 80 1
w 98 97 -80 0
w 98 -97 80 0
w 98 -97 -80 0
w 99 98 81 0
w 99 98 -81 0
w 99 -98 81 1
w 99 -98 -81 0
w 100 99 82 1
w 100 99 -82 0
w 100 -99 82 1
w 100 -99 -82 1
w 101 100 83 0.763417
w 101 100 -83 0.654578
w 101 -100 83 0.656101
w 101 -100 -83 0.831866
w 102 101 84 0
w 102 101 -84 0
w 102 -101 84 0
w 102 -101 -84 1
w 103 102 85 1
w 103 102 -85 1
w 103 -102 85 0
w 103 -102 -85 0
w 104 103 86 0.716565
w 104 103 -86 0.602513
w 104 -103 86 0.119912
w 104 -103 -86 0.261703
w 105 104 87 0.392906
w 105 104 -87 0.127014
w 105 -104 87 0.0819458
w 105 -104 -87 0.0659206
w 106 105 88 0
w 106 105 -88 1
w 106 -105 88 0
w 106 -105 -88 1
w 107 106 89 0.703011
w 107 106 -89 0.0850727
w 107 -106 89 0.429399
w 107 -106 -89 0.359112
w 108 107 90 0.162522
w 108 107 -90 0.279746
w 108 -107 90 0.815012
w 108 -107 -90 0.157516
w 109 91 0.538685
w 109 -91 0.153674
w 110 109 92 0
w 110 109 -92 1
w 110 -109 92 1
w 110 -109 -92 0
w 111 110 93 1
w 111 110 -93 0
w 111 -110 93 0
w 111 -110 -93 0
w 112 111 94 0.411219
w 112 111 -94 0.153789
w 112 -111 94 0.331778
w 112 -111 -94 0.540054
w 113 112 95 0
w 113 112 -95 0
w 113 -112 95 0
w 113 -112 -95 1
w 114 113 96 0.326018
w 114 113 -96 0.17047
w 114 -113 96 0.863721
w 114 -113 -96 0.488539
w 115 114 97 0
w 115 114 -97 1
w 115 -114 97 0
w 115 -114 -97 0
w 116 115 98 0
w 116 115 -98 1
w 116 -115 98 1
w 116 -115 -98 0
w 117 116 99 1
w 117 116 -99 1
w 117 -116 99 0
w 117 -116 -99 1
w 118 117 100 1
w 118 117 -100 1
w 118 -117 100 0
w 118 -117 -100 1
w 119 118 101 0.360329
w 119 118 -101 0.579563
w 119 -118 101 0.632438
w 119 -118 -101 0.307112
w 120 119 102 0.802908
w 120 119 -102 0.170834
w 120 -119 102 0.39412
w 120 -119 -102 0.253125
w 121 120 103 0.0401758
w 121 120 -103 0.692811
w 121 -120 103 0.0669844
w 121 -120 -103 0.839905
w 122 121 104 1
w 122 121 -104 0
w 122 -121 104 0
w 122 -121 -104 0
w 123 122 105 0.686305
w 123 122 -105 0.175767
w 123 -122 105 0.312969
w 123 -122 -105 0.0936632
w 124 123 106 0
w 124 123 -106 1
w 124 -123 106 0
w 124 -123 -106 1
w 125 124 107 0
w 125 124 -107 1
w 125 -124 107 0
w 125 -124 -107 0
w 126 125 108 1
w 126 125 -108 0
w 126 -125 108 1
w 126 -125 -108 1
w 127 109 0.457996
w 127 -109 0.257195
w 128 127 110 1
w 128 127 -110 0
w 128 -127 110 1
w 128 -127 -110 0
w 129 128 111 1
w 129 128 -111 0
w 129 -128 111 1
w 129 -128 -111 1
w 130 129 112 0
w 130 129 -112 1
w 130 -129 112 0
w 130 -129 -112 0
w 131 130 113 1
w 131 130 -113 0
w 131 -130 113 1
w 131 -130 -113 1
w 132 131 114 0.270772
w 132 131 -114 0.206635
w 132 -131 114 0.333009
w 132 -131 -114 0.0936705
w 133 132 115 0
w 133 132 -115 0
w 133 -132 115 1
w 133 -132 -115 0
w 134 133 116 1
w 134 133 -116 1
w 134 -133 116 1
w 134 -133 -116 0
w 135 134 117 0
w 135 134 -117 1
w 135 -134 117 0
w 135 -134 -117 0
w 136 135 118 1
w 136 135 -118 0
w 136 -135 118 0
w 136 -135 -118 0
w 137 136 119 1
w 137 136 -119 1
w 137 -136 119 1
w 137 -136 -119 0
w 138 137 120 0
w 138 137 -120 1
w 138 -137 120 1
w 138 -137 -120 0
w 139 138 121 1
w 139 138 -121 0
w 139 -138 121 0
w 139 -138 -121 0
w 140 139 122 0.0186377
w 140 139 -122 0.967265
w 140 -139 122 0.696564
w 140 -139 -122 0.683622
w 141 140 123 1
w 141 140 -123 1
w 141 -140 123 1
w 141 -140 -123 0
w 142 141 124 0.769844
w 142 141 -124 0.156315
w 142 -141 124 0.395119
w 142 -141 -124 0.426311
w 143 142 125 0
w 143 142 -125 1
w 143 -142 125 0
w 143 -142 -125 0
w 144 143 126 0
w 144 143 -126 0
w 144 -143 126 1
w 144 -143 -126 0
w 145 127 0.221469
w 145 -127 0.699372
w 146 145 128 1
w 146 145 -128 1
w 146 -145 128 0
w 146 -145 -128 0
w 147 146 129 1
w 147 146 -129 0
w 147 -146 129 0
w 147 -146 -129 1
w 148 147 130 1
w 148 147 -130 0
w 148 -147 130 0
w 148 -147 -130 1
w 149 148 131 0.664202
w 149 148 -131 0.872509
w 149 -148 131 0.38936
w 149 -148 -131 0.48149
w 150 149 132 1
w 150 149 -132 0
w 150 -149 132 1
w 150 -149 -132 1
w 151 150 133 0
w 151 150 -133 1
w 151 -150 133 0
w 151 -150 -133 1
w 152 151 134 1
w 152 151 -134 0
w 152 -151 134 1
w 152 -151 -134 0
w 153 152 135 0
w 153 152 -135 0
w 153 -152 135 1
w 153 -152 -135 1
w 154 153 136 0
w 154 153 -136 0
w 154 -153 136 1
w 154 -153 -136 0
w 155 154 137 1
w 155 154 -137 0
w 155 -154 137 0
w 155 -154 -137 0
w 156 155 138 1
w 156 155 -138 1
w 156 -155 138 0
w 156 -155 -138 1
w 157 156 139 0
w 157 156 -139 1
w 157 -156 139 1
w 157 -156 -139 1
w 158 157 140 0
w 158 157 -140 0
w 158 -157 140 0
w 158 -157 -140 1
w 159 158 141 0
w 159 158 -141 1
w 159 -158 141 0
w 159 -158 -141 1
w 160 159 142 1
w 160 159 -142 0
w 160 -159 142 1
w 160 -159 -142 1
w 161 160 143 1
w 161 160 -143 0
w 161 -160 143 0
w 161 -160 -143 1
w 162 161 144 1
w 162 161 -144 1
w 162 -161 144 1
w 162 -161 -144 0
w 163 145 1
w 163 -145 0
w 164 163 146 1
w 164 163 -146 0
w 164 -163 146 1
w 164 -163 -146 1
w 165 164 147 0.38183
w 165 164 -147 0.336946
w 165 -164 147 0.45931
w 165 -164 -147 0.146589
w 166 165 148 0.0651054
w 166 165 -148 0.098123
w 166 -165 148 0.405758
w 166 -165 -148 0.994873
w 167 166 149 0.323932
w 167 166 -149 0.517695
w 167 -166 149 0.0367751
w 167 -166 -149 0.506002
w 168 167 150 1
w 168 167 -150 0
w 168 -167 150 0
w 168 -167 -150 0
w 169 168 151 0
w 169 168 -151 0
w 169 -168 151 1
w 169 -168 -151 1
w 170 169 152 0
w 170 169 -152 0
w 170 -169 152 0
w 170 -169 -152 1
w 171 170 153 0
w 171 170 -153 1
w 171 -170 153 1
w 171 -170 -153 1
w 172 171 154 1
w 172 171 -154 0
w 172 -171 154 1
w 172 -171 -154 1
w 173 172 155 0
w 173 172 -155 1
w 173 -172 155 0
w 173 -172 -155 1
w 174 173 156 0
w 174 173 -156 0
w 174 -173 156 0
w 174 -173 -156 1
w 175 174 157 0
w 175 174 -157 1
w 175 -174 157 1
w 175 -174 -157 0
w 176 175 158 0
w 176 175 -158 0
w 176 -175 158 1
w 176 -175 -158 1
w 177 176 159 1
w 177 176 -159 0
w 177 -176 159 1
w 177 -176 -159 0
w 178 177 160 0
w 178 177 -160 0
w 178 -177 160 0
w 178 -177 -160 1
w 179 178 161 1
w 179 178 -161 1
w 179 -178 161 0
w 179 -178 -161 1
w 180 179 162 1
w 180 179 -162 1
w 180 -179 162 1
w 180 -179 -162 0
w 181 163 0
w 181 -163 1
w 182 181 164 1
w 182 181 -164 0
w 182 -181 164 0
w 182 -181 -164 1
w 183 182 165 1
w 183 182 -165 0
w 183 -182 165 0
w 183 -182 -165 0
w 184 183 166 0
w 184 183 -166 1
w 184 -183 166 0
w 184 -183 -166 0
w 185 184 167 0
w 185 184 -167 0
w 185 -184 167 0
w 185 -184 -167 1
w 186 185 168 1
w 186 185 -168 0
w 186 -185 168 0
w 186 -185 -168 0
w 187 186 169 0
w 187 186 -169 0
w 187 -186 169 1
w 187 -186 -169 1
w 188 187 170 0
w 188 187 -170 1
w 188 -187 170 0
w 188 -187 -170 0
w 189 188 171 0.0298173
w 189 188 -171 0.764863
w 189 -188 171 0.716366
w 189 -188 -171 0.840828
w 190 189 172 0.685816
w 190 189 -172 0.41613
w 190 -189 172 0.332098
w 190 -189 -172 0.561963
w 191 190 173 0.401384
w 191 190 -173 0.551878
w 191 -190 173 0.188076
w 191 -190 -173 0.614826
w 192 191 174 0
w 192 191 -174 1
w 192 -191 174 0
w 192 -191 -174 1
w 193 192 175 0
w 193 192 -175 1
w 193 -192 175 1
w 193 -192 -175 1
w 194 193 176 1
w 194 193 -176 0
w 194 -193 176 1
w 194 -193 -176 0
w 195 194 177 1
w 195 194 -177 1
w 195 -194 177 1
w 195 -194 -177 0
w 196 195 178 0
w 196 195 -178 1
w 196 -195 178 0
w 196 -195 -178 1
w 197 196 179 1
w 197 196 -179 1
w 197 -196 179 1
w 197 -196 -179 0
w 198 197 180 0
w 198 197 -180 0
w 198 -197 180 1
w 198 -197 -180 0
w 199 181 1
w 199 -181 0
w 200 199 182 0
w 200 199 -182 0
w 200 -199 182 0
w 200 -199 -182 1
w 201 200 183 0
w 201 200 -183 0
w 201 -200 183 1
w 201 -200 -183 1
w 202 201 184 0.682257
w 202 201 -184 0.439445
w 202 -201 184 0.788863
w 202 -201 -184 0.0762092
w 203 202 185 0
w 203 202 -185 1
w 203 -202 185 1
w 203 -202 -185 1
w 204 203 186 0
w 204 203 -186 0
w 204 -203 186 1
w 204 -203 -186 0
w 205 204 187 1
w 205 204 -187 1
w 205 -204 187 0
w 205 -204 -187 0
w 206 205 188 0
w 206 205 -188 0
w 206 -205 188 1
w 206 -205 -188 0
w 207 206 189 1
w 207 206 -189 0
w 207 -206 189 1
w 207 -206 -189 1
w 208 207 190 0
w 208 207 -190 0
w 208 -207 190 1
w 208 -207 -190 0
w 209 208 191 1
w 209 208 -191 1
w 209 -208 191 0
w 209 -208 -191 0
w 210 209 192 0
w 210 209 -192 0
w 210 -209 192 1
w 210 -209 -192 0
w 211 210 193 0.0186133
w 211 210 -193 0.895987
w 211 -210 193 0.648284
w 211 -210 -193 0.529371
w 212 211 194 1
w 212 211 -194 0
w 212 -211 194 1
w 212 -211 -194 0
w 213 212 195 1
w 213 212 -195 0
w 213 -212 195 1
w 213 -212 -195 0
w 214 213 196 1
w 214 213 -196 0
w 214 -213 196 1
w 214 -213 -196 0
w 215 214 197 0.816691
w 215 214 -197 0.0807377
w 215 -214 197 0.711101
w 215 -214 -197 0.257591
w 216 215 198 1
w 216 215 -198 1
w 216 -215 198 0
w 216 -215 -198 1
w 217 199 1
w 217 -199 0
w 218 217 200 1
w 218 217 -200 1
w 218 -217 200 1
w 218 -217 -200 0
w 219 218 201 0
w 219 218 -201 1
w 219 -218 201 0
w 219 -218 -201 1
w 220 219 202 1
w 220 219 -202 1
w 220 -219 202 0
w 220 -219 -202 0
w 221 220 203 1
w 221 220 -203 1
w 221 -220 203 0
w 221 -220 -203 1
w 222 221 204 0.720448
w 222 221 -204 0.627038
w 222 -221 204 0.945528
w 222 -221 -204 0.808373
w 223 222 205 0.35891
w 223 222 -205 0.645899
w 223 -222 205 0.312609
w 223 -222 -205 0.558714
w 224 223 206 1
w 224 223 -206 1
w 224 -223 206 0
w 224 -223 -206 0
w 225 224 207 0
w 225 224 -207 1
w 225 -224 207 0
w 225 -224 -207 0
w 226 225 208 1
w 226 225 -208 1
w 226 -225 208 0
w 226 -225 -208 1
w 227 226 209 1
w 227 226 -209 0
w 227 -226 209 0
w 227 -226 -209 1
w 228 227 210 1
w 228 227 -210 1
w 228 -227 210 0
w 228 -227 -210 1
w 229 228 211 0
w 229 228 -211 0
w 229 -228 211 1
w 229 -228 -211 0
w 230 229 212 1
w 230 229 -212 0
w 230 -229 212 1
w 230 -229 -212 1
w 231 230 213 0
w 231 230 -213 1
w 231 -230 213 1
w 231 -230 -213 1
w 232 231 214 1
w 232 231 -214 0
w 232 -231 214 0
w 232 -231 -214 0
w 233 232 215 1
w 233 232 -215 0
w 233 -232 215 0
w 233 -232 -215 1
w 234 233 216 1
w 234 233 -216 0
w 234 -233 216 1
w 234 -233 -216 0
w 235 217 1
w 235 -217 0
w 236 235 218 0.907035
w 236 235 -218 0.910829
w 236 -235 218 0.128514
w 236 -235 -218 0.653867
w 237 236 219 0.697251
w 237 236 -219 0.288248
w 237 -236 219 0.787463
w 237 -236 -219 0.372725
w 238 237 220 0
w 238 237 -220 1
w 238 -237 220 0
w 238 -237 -220 0
w 239 238 221 1
w 239 238 -221 0
w 239 -238 221 0
w 239 -238 -221 1
w 240 239 222 0.149686
w 240 239 -222 0.786201
w 240 -239 222 0.150523
w 240 -239 -222 0.788728
w 241 240 223 0.213872
w 241 240 -223 0.453391
w 241 -240 223 0.268608
w 241 -240 -223 0.876114
w 242 241 224 0
w 242 241 -224 1
w 242 -241 224 1
w 242 -241 -224 1
w 243 242 225 1
w 243 242 -225 1
w 243 -242 225 1
w 243 -242 -225 0
w 244 243 226 0
w 244 243 -226 0
w 244 -243 226 1
w 244 -243 -226 0
w 245 244 227 1
w 245 244 -227 1
w 245 -244 227 0
w 245 -244 -227 1
w 246 245 228 1
w 246 245 -228 0
w 246 -245 228 0
w 246 -245 -228 0
w 247 246 229 0.771169
w 247 246 -229 0.315362
w 247 -246 229 0.395585
w 247 -246 -229 0.0397776
w 248 247 230 0
w 248 247 -230 1
w 248 -247 230 1
w 248 -247 -230 0
w 249 248 231 0
w 249 248 -231 1
w 249 -248 231 0
w 249 -248 -231 1
w 250 249 232 0.133293
w 250 249 -232 0.0977958
w 250 -249 232 0.660814
w 250 -249 -232 0.529938
w 251 250 233 0
w 251 250 -233 1
w 251 -250 233 1
w 251 -250 -233 1
w 252 251 234 0.0833847
w 252 251 -234 0.781737
w 252 -251 234 0.745358
w 252 -251 -234 0.184875
w 253 235 1
w 253 -235 0
w 254 253 236 0
w 254 253 -236 1
w 254 -253 236 1
w 254 -253 -236 1
w 255 254 237 0.66634
w 255 254 -237 0.0760116
w 255 -254 237 0.469935
w 255 -254 -237 0.0779838
w 256 255 238 1
w 256 255 -238 0
w 256 -255 238 0
w 256 -255 -238 1
w 257 256 239 1
w 257 256 -239 0
w 257 -256 239 0
w 257 -256 -239 1
w 258 257 240 1
w 258 257 -240 0
w 258 -257 240 0
w 258 -257 -240 1
w 259 258 241 0
w 259 258 -241 1
w 259 -258 241 0
w 259 -258 -241 0
w 260 259 242 0.734283
w 260 259 -242 0.710726
w 260 -259 242 0.495971
w 260 -259 -242 0.425997
w 261 260 243 0
w 261 260 -243 0
w 261 -260 243 0
w 261 -260 -243 1
w 262 261 244 1
w 262 261 -244 0
w 262 -261 244 0
w 262 -261 -244 1
w 263 262 245 0
w 263 262 -245 1
w 263 -262 245 0
w 263 -262 -245 0
w 264 263 246 1
w 264 263 -246 0
w 264 -263 246 1
w 264 -263 -246 1
w 265 264 247 0
w 265 264 -247 1
w 265 -264 247 0
w 265 -264 -247 0
w 266 265 248 0
w 266 265 -248 1
w 266 -265 248 0
w 266 -265 -248 0
w 267 266 249 1
w 267 266 -249 0
w 267 -266 249 1
w 267 -266 -249 0
w 268 267 250 1
w 268 267 -250 0
w 268 -267 250 0
w 268 -267 -250 1
w 269 268 251 1
w 269 268 -251 1
w 269 -268 251 0
w 269 -268 -251 0
w 270 269 252 0
w 270 269 -252 0
w 270 -269 252 0
w 270 -269 -252 1
w 271 253 0.211735
w 271 -253 0.140581
w 272 271 254 0
w 272 271 -254 0
w 272 -271 254 0
w 272 -271 -254 1
w 273 272 255 0.25482
w 273 272 -255 0.0661398
w 273 -272 255 0.730526
w 273 -272 -255 0.766535
w 274 273 256 0
w 274 273 -256 0
w 274 -273 256 1
w 274 -273 -256 1
w 275 274 257 0
w 275 274 -257 1
w 275 -274 257 0
w 275 -274 -257 1
w 276 275 258 0
w 276 275 -258 0
w 276 -275 258 0
w 276 -275 -258 1
w 277 276 259 0.285916
w 277 276 -259 0.0253114
w 277 -276 259 0.196336
w 277 -276 -259 0.426498
w 278 277 260 0
w 278 277 -260 1
w 278 -277 260 1
w 278 -277 -260 0
w 279 278 261 0.356086
w 279 278 -261 0.896326
w 279 -278 261 0.876148
w 279 -278 -261 0.0866122
w 280 279 262 1
w 280 279 -262 1
w 280 -279 262 0
w 280 -279 -262 1
w 281 280 263 1
w 281 280 -263 0
w 281 -280 263 1
w 281 -280 -263 1
w 282 281 264 0
w 282 281 -264 1
w 282 -281 264 1
w 282 -281 -264 1
w 283 282 265 0
w 283 282 -265 0
w 283 -282 265 1
w 283 -282 -265 1
w 284 283 266 0.388556
w 284 283 -266 0.642542
w 284 -283 266 0.307691
w 284 -283 -266 0.0300616
w 285 284 267 1
w 285 284 -267 0
w 285 -284 267 0
w 285 -284 -267 1
w 286 285 268 1
w 286 285 -268 0
w 286 -285 268 1
w 286 -285 -268 0
w 287 286 269 0.898271
w 287 286 -269 0.0489027
w 287 -286 269 0.608372
w 287 -286 -269 0.205741
w 288 287 270 1
w 288 287 -270 0
w 288 -287 270 0
w 288 -287 -270 1
w 289 271 1
w 289 -271 0
w 290 289 272 1
w 290 289 -272 0
w 290 -289 272 0
w 290 -289 -272 0
w 291 290 273 0
w 291 290 -273 0
w 291 -290 273 0
w 291 -290 -273 1
w 292 291 274 0
w 292 291 -274 1
w 292 -291 274 1
w 292 -291 -274 1
w 293 292 275 0
w 293 292 -275 1
w 293 -292 275 0
w 293 -292 -275 1
w 294 293 276 0.166205
w 294 293 -276 0.985996
w 294 -293 276 0.404457
w 294 -293 -276 0.86104
w 295 294 277 0
w 295 294 -277 0
w 295 -294 277 0
w 295 -294 -277 1
w 296 295 278 1
w 296 295 -278 1
w 296 -295 278 0
w 296 -295 -278 1
w 297 296 279 1
w 297 296 -279 1
w 297 -296 279 0
w 297 -296 -279 0
w 298 297 280 1
w 298 297 -280 1
w 298 -297 280 0
w 298 -297 -280 1
w 299 298 281 0.863559
w 299 298 -281 0.927542
w 299 -298 281 0.807202
w 299 -298 -281 0.421392
w 300 299 282 1
w 300 299 -282 0
w 300 -299 282 1
w 300 -299 -282 1
w 301 300 283 0.716462
w 301 300 -283 0.832103
w 301 -300 283 0.440554
w 301 -300 -283 0.11215
w 302 301 284 0.516463
w 302 301 -284 0.220526
w 302 -301 284 0.046838
w 302 -301 -284 0.872297
w 303 302 285 1
w 303 302 -285 0
w 303 -302 285 0
w 303 -302 -285 1
w 304 303 286 1
w 304 303 -286 0
w 304 -303 286 1
w 304 -303 -286 0
w 305 304 287 0
w 305 304 -287 0
w 305 -304 287 1
w 305 -304 -287 0
w 306 305 288 1
w 306 305 -288 0
w 306 -305 288 1
w 306 -305 -288 0
w 307 289 0
w 307 -289 1
w 308 307 290 1
w 308 307 -290 1
w 308 -307 290 1
w 308 -307 -290 0
w 309 308 291 0.258841
w 309 308 -291 0.26343
w 309 -308 291 0.336493
w 309 -308 -291 0.319494
w 310 309 292 0
w 310 309 -292 1
w 310 -309 292 0
w 310 -309 -292 1
w 311 310 293 0.296978
w 311 310 -293 0.492499
w 311 -310 293 0.0362546
w 311 -310 -293 0.36775
w 312 311 294 1
w 312 311 -294 1
w 312 -311 294 0
w 312 -311 -294 0
w 313 312 295 0.0302476
w 313 312 -295 0.542437
w 313 -312 295 0.468072
w 313 -312 -295 0.464363
w 314 313 296 1
w 314 313 -296 0
w 314 -313 296 1
w 314 -313 -296 1
w 315 314 297 1
w 315 314 -297 0
w 315 -314 297 1
w 315 -314 -297 1
w 316 315 298 0
w 316 315 -298 1
w 316 -315 298 0
w 316 -315 -298 0
w 317 316 299 0
w 317 316 -299 1
w 317 -316 299 1
w 317 -316 -299 1
w 318 317 300 0.557376
w 318 317 -300 0.199867
w 318 -317 300 0.687176
w 318 -317 -300 0.0432475
w 319 318 301 0.626851
w 319 318 -301 0.0734951
w 319 -318 301 0.427531
w 319 -318 -301 0.0949233
w 320 319 302 0
w 320 319 -302 0
w 320 -319 302 1
w 320 -319 -302 1
w 321 320 303 0.607056
w 321 320 -303 0.0538539
w 321 -320 303 0.263489
w 321 -320 -303 0.60065
w 322 321 304 1
w 322 321 -304 1
w 322 -321 304 0
w 322 -321 -304 1
w 323 322 305 1
w 323 322 -305 1
w 323 -322 305 1
w 323 -322 -305 0
w 324 323 306 0
w 324 323 -306 0
w 324 -323 306 1
w 324 -323 -306 0